Normalized Data/p10_14_normalized_splitx10_0.vrp
NAME:p10_14_NORMALIZED_splitx10_
BEST_KNOWN: 0
COMMENT: 0
DIMENSION: 860
CAPACITY: 1000
EDGE_WEIGHT_FORMAT: FUNCTION
EDGE_WEIGHT_TYPE: EXACT_2D
NODE_COORD_SECTION
1 0.00000 0.00000
2 -34 -2
3 -34 -2
4 -34 -2
5 -34 -2
6 -34 -2
7 -34 -2
8 -18 38
9 -18 38
10 -18 38
11 -18 38
12 -18 38
13 -18 38
14 -18 38
15 -43 36
16 -43 36
17 -43 36
18 -43 36
19 -43 36
20 -43 36
21 -30 5
22 -30 5
23 -20 -17
24 -20 -17
25 3 8
26 3 8
27 3 8
28 -42 -49
29 -42 -49
30 -42 -49
31 -7 30
32 -7 30
33 -7 30
34 -7 30
35 -38 37
36 -38 37
37 -38 37
38 -38 37
39 -38 37
40 18 23
41 18 23
42 18 23
43 18 23
44 18 23
45 -46 5
46 -46 5
47 -46 5
48 -46 5
49 -46 5
50 -46 5
51 -26 -41
52 -26 -41
53 -26 -41
54 -26 -41
55 -26 -41
56 -43 -21
57 -43 -21
58 25 33
59 -28 30
60 -28 30
61 -28 30
62 -28 30
63 -28 30
64 -5 -1
65 -5 -1
66 -5 -1
67 -5 -1
68 -5 -1
69 -34 23
70 -34 23
71 -34 23
72 -34 23
73 -34 23
74 -34 23
75 12 -33
76 12 -33
77 12 -33
78 35 -38
79 35 -38
80 35 -38
81 35 -38
82 38 -16
83 38 -16
84 38 -16
85 38 -16
86 38 -16
87 18 47
88 18 47
89 18 47
90 18 47
91 -4 -35
92 -4 -35
93 -4 -35
94 -4 -35
95 -4 -35
96 47 6
97 47 6
98 47 6
99 47 6
100 29 14
101 29 14
102 29 14
103 29 14
104 29 14
105 38 -29
106 38 -29
107 38 -29
108 38 -29
109 38 -29
110 38 -29
111 15 -28
112 15 -28
113 15 -28
114 15 -28
115 15 -28
116 15 -28
117 -1 18
118 -1 18
119 -1 18
120 -1 18
121 -1 18
122 -1 18
123 -43 -37
124 -43 -37
125 -43 -37
126 20 32
127 20 32
128 20 32
129 -23 -26
130 16 49
131 16 49
132 -30 -30
133 -30 -30
134 -30 -30
135 -3 -29
136 -3 -29
137 -3 -29
138 -3 -29
139 -40 45
140 -40 45
141 -40 45
142 -11 -48
143 -11 -48
144 -11 -48
145 -11 -48
146 -11 -48
147 -11 -48
148 -31 -37
149 -31 -37
150 -31 -37
151 -31 -37
152 -31 -37
153 -13 -27
154 -13 -27
155 -13 -27
156 -13 -27
157 -13 -27
158 -13 -27
159 -39 22
160 -39 22
161 -39 22
162 -39 22
163 -39 22
164 -39 22
165 -41 30
166 -41 30
167 -41 30
168 -41 30
169 -41 30
170 -30 -13
171 -30 -13
172 -30 -13
173 -30 -13
174 -30 -13
175 -33 44
176 -33 44
177 -33 44
178 -33 44
179 -33 44
180 -15 -7
181 -15 -7
182 -15 -7
183 -15 -7
184 18 46
185 18 46
186 18 46
187 18 46
188 18 46
189 18 46
190 19 -38
191 19 -38
192 19 -38
193 36 -4
194 36 -4
195 36 -4
196 36 -4
197 36 -4
198 36 -4
199 -38 -1
200 -38 -1
201 -38 -1
202 -38 -1
203 -38 -1
204 -38 -1
205 9 34
206 9 34
207 9 34
208 9 34
209 9 34
210 33 27
211 33 27
212 33 27
213 33 27
214 -6 -18
215 -6 -18
216 -6 -18
217 -43 -43
218 -43 -43
219 -43 -43
220 -43 -43
221 -43 -43
222 -43 -43
223 49 40
224 49 40
225 49 40
226 49 40
227 49 40
228 12 -2
229 12 -2
230 12 -2
231 12 -2
232 12 -2
233 -48 -13
234 -48 -13
235 -48 -13
236 35 -34
237 35 -34
238 35 -34
239 35 -34
240 35 -34
241 -42 9
242 -42 9
243 -42 9
244 -30 -33
245 -30 -33
246 -30 -33
247 -30 -33
248 42 -35
249 42 -35
250 42 -35
251 42 -35
252 10 24
253 10 24
254 10 24
255 -30 32
256 -30 32
257 -30 32
258 -30 32
259 -39 39
260 -39 39
261 -39 39
262 41 -25
263 41 -25
264 41 -25
265 -5 36
266 -5 36
267 -5 36
268 -5 36
269 -5 36
270 -21 29
271 -21 29
272 -21 29
273 -21 29
274 -21 29
275 -21 29
276 -1 -6
277 -1 -6
278 -1 -6
279 -1 -6
280 -1 -6
281 -23 32
282 -23 32
283 -23 32
284 -23 32
285 9 50
286 9 50
287 9 50
288 9 50
289 9 50
290 -37 33
291 -37 33
292 -37 33
293 -37 33
294 -37 33
295 -31 -24
296 -31 -24
297 -31 -24
298 -31 -24
299 -28 11
300 -28 11
301 -28 11
302 -28 11
303 -28 11
304 -28 11
305 33 25
306 33 25
307 33 25
308 33 25
309 33 25
310 40 -17
311 40 -17
312 24 -46
313 24 -46
314 24 -46
315 24 -46
316 24 -46
317 41 -23
318 41 -23
319 33 13
320 33 13
321 -45 -48
322 -46 -7
323 -46 -7
324 -46 -7
325 -4 40
326 -4 40
327 -4 40
328 1 -19
329 1 -19
330 1 -19
331 1 16
332 1 16
333 1 16
334 -6 -50
335 -6 -50
336 -6 -50
337 -6 -50
338 -6 -50
339 -6 -50
340 -13 12
341 -13 12
342 -13 12
343 44 33
344 44 33
345 44 33
346 2 -46
347 2 -46
348 2 -46
349 2 -46
350 2 -46
351 2 -46
352 -11 35
353 -11 35
354 -11 35
355 -11 35
356 -11 35
357 -11 35
358 -40 3
359 -40 3
360 -40 3
361 -41 -20
362 -41 -20
363 -41 -20
364 -41 -20
365 -41 -20
366 -41 -20
367 -41 -20
368 -31 -25
369 -31 -25
370 -31 -25
371 6 36
372 -31 -45
373 -31 -45
374 -31 -45
375 -31 -45
376 -31 -45
377 -31 -45
378 -31 -45
379 -46 -21
380 -46 -21
381 -46 -21
382 -46 -21
383 -46 -21
384 44 0
385 44 0
386 44 0
387 44 0
388 -16 -44
389 -16 -44
390 -16 -44
391 -16 -44
392 -34 24
393 -34 24
394 -34 24
395 -34 24
396 -34 24
397 5 17
398 5 17
399 -26 41
400 -26 41
401 -26 41
402 -26 41
403 -42 28
404 -42 28
405 -42 28
406 -42 28
407 -42 28
408 -42 28
409 -42 28
410 33 12
411 33 12
412 33 12
413 33 12
414 33 12
415 33 12
416 11 48
417 11 48
418 11 48
419 11 48
420 44 -45
421 44 -45
422 44 -45
423 44 -45
424 44 -45
425 44 -45
426 -41 40
427 -41 40
428 -41 9
429 -41 9
430 -41 9
431 -14 -33
432 -14 -33
433 -14 -33
434 -14 -33
435 -14 -33
436 -33 43
437 -33 43
438 -33 43
439 5 -20
440 5 -20
441 5 -20
442 5 -20
443 5 -20
444 47 2
445 47 2
446 47 2
447 47 2
448 49 -4
449 49 -4
450 49 -4
451 49 -4
452 -40 -13
453 -40 -13
454 -40 -13
455 -40 -13
456 -40 -13
457 -40 -13
458 -41 -45
459 -41 -45
460 -41 -45
461 -41 -45
462 -41 -45
463 -41 -45
464 -48 -14
465 -48 -14
466 -48 -14
467 -48 -14
468 -48 -14
469 -48 -14
470 -48 -14
471 -42 29
472 -42 29
473 -42 29
474 -42 29
475 9 -26
476 9 -26
477 9 -26
478 9 -26
479 9 -26
480 9 -26
481 9 -26
482 48 31
483 48 31
484 48 31
485 48 31
486 48 31
487 48 31
488 -14 -25
489 -14 -25
490 -14 -25
491 -14 -25
492 -14 -25
493 -14 -25
494 22 -24
495 22 -24
496 22 -24
497 22 -24
498 22 -24
499 -44 -30
500 -44 -30
501 -44 -30
502 -44 -30
503 -44 -30
504 -44 -30
505 -12 23
506 -12 23
507 -12 23
508 -12 23
509 -12 23
510 -12 23
511 -12 23
512 -8 -40
513 -8 -40
514 -8 -40
515 -8 -40
516 -8 -40
517 -8 -40
518 -8 -40
519 -23 -1
520 -23 -1
521 -23 -1
522 -23 -1
523 -23 -1
524 -23 -1
525 6 -38
526 6 -38
527 6 -38
528 6 -38
529 29 31
530 29 31
531 35 -42
532 35 -42
533 35 -42
534 10 -5
535 10 -5
536 -14 19
537 -14 19
538 -14 19
539 -14 19
540 -32 -24
541 -32 -24
542 48 -1
543 48 -1
544 48 -1
545 48 -1
546 48 -1
547 48 -1
548 26 34
549 26 34
550 26 34
551 26 34
552 26 34
553 26 34
554 26 34
555 20 -48
556 20 -48
557 20 -48
558 -24 -28
559 -24 -28
560 -24 -28
561 -24 -28
562 10 -8
563 10 -8
564 10 -8
565 27 49
566 27 49
567 27 49
568 38 -40
569 38 -40
570 12 20
571 12 20
572 12 20
573 12 20
574 -4 -21
575 -4 -21
576 -4 -21
577 -4 -21
578 -4 -21
579 -4 -21
580 -12 -18
581 8 -45
582 8 -45
583 8 -45
584 8 -45
585 21 31
586 21 31
587 21 31
588 21 31
589 43 -2
590 43 -2
591 -28 -12
592 -28 -12
593 -28 -12
594 -28 -12
595 -28 -12
596 -28 -12
597 30 0
598 -6 19
599 -6 19
600 -6 19
601 -6 19
602 -6 19
603 -6 19
604 -6 19
605 30 -37
606 30 -37
607 30 -37
608 30 -37
609 30 -37
610 -49 37
611 -49 37
612 14 -1
613 14 -1
614 22 -3
615 22 -3
616 22 -3
617 -17 43
618 -17 43
619 -17 43
620 -17 43
621 14 0
622 14 0
623 14 0
624 14 0
625 14 0
626 38 -14
627 38 -14
628 38 -14
629 38 -14
630 38 -14
631 38 -14
632 15 -38
633 15 -38
634 17 21
635 17 21
636 17 21
637 17 21
638 17 21
639 17 21
640 35 -34
641 35 -34
642 35 -34
643 35 -34
644 35 -34
645 35 -34
646 35 -34
647 41 -48
648 41 -48
649 41 -48
650 34 18
651 34 18
652 34 18
653 -37 39
654 -37 39
655 -37 39
656 -37 39
657 -37 39
658 -37 39
659 44 34
660 44 34
661 44 34
662 44 34
663 -1 33
664 -1 33
665 -12 29
666 -12 29
667 -12 29
668 -50 0
669 -50 0
670 -50 0
671 -50 0
672 -50 0
673 -50 0
674 -50 0
675 12 -7
676 12 -7
677 12 -7
678 4 -15
679 4 -15
680 46 10
681 46 10
682 46 10
683 0 -42
684 0 -42
685 0 -42
686 0 -42
687 0 -42
688 0 -42
689 0 -42
690 0 13
691 0 13
692 0 13
693 0 13
694 0 13
695 0 13
696 4 5
697 4 5
698 4 5
699 4 5
700 4 5
701 -22 27
702 -22 27
703 -22 27
704 -22 27
705 -22 27
706 -45 -2
707 -45 -2
708 -45 -2
709 -45 -2
710 43 23
711 43 23
712 43 23
713 43 23
714 16 -2
715 16 -2
716 -7 44
717 -7 44
718 -7 44
719 -35 -8
720 -35 -8
721 -35 -8
722 -35 -8
723 -35 -8
724 5 0
725 5 0
726 5 0
727 5 0
728 5 0
729 5 0
730 23 -9
731 23 -9
732 23 -9
733 23 -9
734 20 -8
735 20 -8
736 20 -8
737 17 -17
738 30 -31
739 30 -31
740 30 -31
741 30 -31
742 -21 -2
743 -21 -2
744 -21 -2
745 -21 -2
746 -21 -2
747 34 43
748 34 43
749 34 43
750 34 43
751 -25 30
752 -25 30
753 -25 30
754 -25 30
755 -25 30
756 -25 30
757 7 39
758 7 39
759 7 39
760 7 39
761 7 39
762 7 39
763 7 39
764 -3 -27
765 -3 -27
766 -3 -27
767 -3 -27
768 -39 -36
769 -39 -36
770 -39 -36
771 -39 -36
772 -39 -36
773 -39 -36
774 -46 19
775 -46 19
776 -46 19
777 -46 19
778 -46 19
779 -46 19
780 -46 -30
781 -46 -30
782 -46 -30
783 -46 -30
784 -46 -30
785 -46 -30
786 -32 21
787 -32 21
788 -32 21
789 -32 21
790 -32 21
791 -32 21
792 -6 -9
793 -6 -9
794 -6 -9
795 -6 -9
796 -6 -9
797 -32 -41
798 -32 -41
799 -32 -41
800 -32 -41
801 -32 -41
802 0 -28
803 0 -28
804 0 -28
805 0 -28
806 0 -28
807 0 -28
808 27 -50
809 27 -50
810 27 -50
811 27 -50
812 27 -50
813 27 -50
814 -26 -18
815 -26 -18
816 -26 -18
817 -26 -5
818 -26 -5
819 -11 -46
820 -11 -46
821 -11 -46
822 -11 -46
823 -11 -46
824 42 33
825 42 33
826 42 33
827 34 28
828 34 28
829 34 28
830 -14 -31
831 -14 -31
832 -14 -31
833 -14 -31
834 -14 -31
835 -32 0
836 -32 0
837 -32 0
838 5 38
839 5 38
840 5 38
841 5 38
842 -45 -17
843 -45 -17
844 -45 -17
845 -45 -17
846 -46 -13
847 -46 -13
848 -46 -13
849 -46 -13
850 -46 -13
851 -46 -13
852 -13 50
853 -13 50
854 -13 50
855 -13 50
856 -14 -43
857 -14 -43
858 -14 -43
859 -14 -43
860 -14 -43
DEMAND_SECTION
1 0
2 200
3 100
4 50
5 10
6 10
7 10
8 200
9 100
10 50
11 10
12 10
13 10
14 10
15 200
16 200
17 50
18 10
19 10
20 10
21 200
22 200
23 200
24 200
25 100
26 10
27 10
28 200
29 200
30 50
31 100
32 50
33 10
34 10
35 200
36 10
37 10
38 10
39 10
40 100
41 50
42 10
43 10
44 10
45 200
46 50
47 10
48 10
49 10
50 10
51 200
52 200
53 10
54 10
55 10
56 100
57 50
58 200
59 100
60 50
61 10
62 10
63 10
64 200
65 200
66 50
67 10
68 10
69 200
70 200
71 10
72 10
73 10
74 10
75 200
76 100
77 50
78 200
79 10
80 10
81 10
82 100
83 10
84 10
85 10
86 10
87 200
88 200
89 10
90 10
91 100
92 50
93 10
94 10
95 10
96 100
97 50
98 10
99 10
100 200
101 50
102 10
103 10
104 10
105 200
106 200
107 50
108 10
109 10
110 10
111 200
112 100
113 50
114 10
115 10
116 10
117 200
118 50
119 10
120 10
121 10
122 10
123 100
124 10
125 10
126 100
127 50
128 10
129 200
130 100
131 50
132 200
133 200
134 50
135 200
136 100
137 50
138 10
139 200
140 200
141 10
142 200
143 100
144 10
145 10
146 10
147 10
148 100
149 50
150 10
151 10
152 10
153 100
154 50
155 10
156 10
157 10
158 10
159 200
160 50
161 10
162 10
163 10
164 10
165 100
166 50
167 10
168 10
169 10
170 100
171 50
172 10
173 10
174 10
175 200
176 10
177 10
178 10
179 10
180 200
181 200
182 10
183 10
184 200
185 100
186 50
187 10
188 10
189 10
190 200
191 10
192 10
193 100
194 50
195 10
196 10
197 10
198 10
199 200
200 200
201 50
202 10
203 10
204 10
205 200
206 100
207 10
208 10
209 10
210 200
211 200
212 50
213 10
214 100
215 50
216 10
217 200
218 100
219 50
220 10
221 10
222 10
223 200
224 200
225 50
226 10
227 10
228 200
229 100
230 10
231 10
232 10
233 200
234 200
235 100
236 200
237 100
238 10
239 10
240 10
241 200
242 100
243 10
244 200
245 100
246 50
247 10
248 200
249 100
250 50
251 10
252 100
253 10
254 10
255 200
256 10
257 10
258 10
259 200
260 100
261 50
262 200
263 100
264 10
265 200
266 100
267 10
268 10
269 10
270 200
271 200
272 10
273 10
274 10
275 10
276 100
277 10
278 10
279 10
280 10
281 200
282 100
283 50
284 10
285 100
286 10
287 10
288 10
289 10
290 100
291 10
292 10
293 10
294 10
295 200
296 100
297 50
298 10
299 200
300 100
301 50
302 10
303 10
304 10
305 200
306 200
307 50
308 10
309 10
310 200
311 50
312 200
313 50
314 10
315 10
316 10
317 200
318 50
319 200
320 200
321 200
322 100
323 10
324 10
325 200
326 200
327 50
328 200
329 100
330 10
331 200
332 200
333 100
334 200
335 50
336 10
337 10
338 10
339 10
340 200
341 100
342 10
343 200
344 200
345 10
346 200
347 200
348 10
349 10
350 10
351 10
352 200
353 100
354 50
355 10
356 10
357 10
358 200
359 100
360 10
361 200
362 200
363 50
364 10
365 10
366 10
367 10
368 200
369 100
370 50
371 200
372 200
373 100
374 50
375 10
376 10
377 10
378 10
379 200
380 200
381 50
382 10
383 10
384 200
385 10
386 10
387 10
388 200
389 10
390 10
391 10
392 200
393 100
394 50
395 10
396 10
397 100
398 50
399 200
400 100
401 10
402 10
403 200
404 100
405 50
406 10
407 10
408 10
409 10
410 100
411 50
412 10
413 10
414 10
415 10
416 200
417 10
418 10
419 10
420 200
421 50
422 10
423 10
424 10
425 10
426 200
427 50
428 200
429 50
430 10
431 200
432 100
433 10
434 10
435 10
436 200
437 100
438 50
439 200
440 100
441 50
442 10
443 10
444 100
445 10
446 10
447 10
448 200
449 10
450 10
451 10
452 100
453 50
454 10
455 10
456 10
457 10
458 200
459 200
460 50
461 10
462 10
463 10
464 200
465 100
466 50
467 10
468 10
469 10
470 10
471 200
472 100
473 10
474 10
475 200
476 100
477 50
478 10
479 10
480 10
481 10
482 200
483 200
484 10
485 10
486 10
487 10
488 200
489 200
490 50
491 10
492 10
493 10
494 200
495 100
496 50
497 10
498 10
499 200
500 200
501 10
502 10
503 10
504 10
505 200
506 100
507 50
508 10
509 10
510 10
511 10
512 200
513 100
514 50
515 10
516 10
517 10
518 10
519 100
520 50
521 10
522 10
523 10
524 10
525 100
526 50
527 10
528 10
529 100
530 50
531 200
532 200
533 100
534 200
535 10
536 200
537 100
538 10
539 10
540 100
541 50
542 100
543 50
544 10
545 10
546 10
547 10
548 200
549 200
550 50
551 10
552 10
553 10
554 10
555 200
556 50
557 10
558 200
559 200
560 50
561 10
562 200
563 200
564 100
565 200
566 200
567 100
568 100
569 50
570 200
571 200
572 50
573 10
574 200
575 200
576 10
577 10
578 10
579 10
580 200
581 100
582 50
583 10
584 10
585 100
586 50
587 10
588 10
589 100
590 50
591 200
592 100
593 50
594 10
595 10
596 10
597 200
598 200
599 200
600 50
601 10
602 10
603 10
604 10
605 100
606 50
607 10
608 10
609 10
610 200
611 50
612 100
613 50
614 200
615 10
616 10
617 200
618 100
619 50
620 10
621 200
622 100
623 10
624 10
625 10
626 200
627 100
628 50
629 10
630 10
631 10
632 200
633 100
634 200
635 50
636 10
637 10
638 10
639 10
640 200
641 200
642 50
643 10
644 10
645 10
646 10
647 200
648 100
649 10
650 200
651 200
652 10
653 200
654 100
655 10
656 10
657 10
658 10
659 100
660 10
661 10
662 10
663 100
664 50
665 200
666 100
667 10
668 200
669 200
670 50
671 10
672 10
673 10
674 10
675 200
676 200
677 50
678 200
679 200
680 200
681 10
682 10
683 200
684 200
685 50
686 10
687 10
688 10
689 10
690 200
691 200
692 10
693 10
694 10
695 10
696 100
697 50
698 10
699 10
700 10
701 200
702 200
703 10
704 10
705 10
706 200
707 10
708 10
709 10
710 200
711 10
712 10
713 10
714 200
715 50
716 200
717 200
718 100
719 200
720 200
721 50
722 10
723 10
724 200
725 100
726 50
727 10
728 10
729 10
730 100
731 50
732 10
733 10
734 100
735 50
736 10
737 200
738 200
739 100
740 50
741 10
742 200
743 100
744 50
745 10
746 10
747 200
748 10
749 10
750 10
751 200
752 50
753 10
754 10
755 10
756 10
757 200
758 100
759 50
760 10
761 10
762 10
763 10
764 200
765 10
766 10
767 10
768 200
769 200
770 10
771 10
772 10
773 10
774 200
775 100
776 50
777 10
778 10
779 10
780 200
781 200
782 10
783 10
784 10
785 10
786 200
787 100
788 10
789 10
790 10
791 10
792 100
793 50
794 10
795 10
796 10
797 100
798 50
799 10
800 10
801 10
802 200
803 200
804 50
805 10
806 10
807 10
808 200
809 50
810 10
811 10
812 10
813 10
814 200
815 10
816 10
817 200
818 10
819 100
820 50
821 10
822 10
823 10
824 100
825 50
826 10
827 200
828 200
829 10
830 200
831 100
832 10
833 10
834 10
835 200
836 100
837 10
838 200
839 50
840 10
841 10
842 200
843 100
844 50
845 10
846 100
847 50
848 10
849 10
850 10
851 10
852 200
853 100
854 10
855 10
856 200
857 10
858 10
859 10
860 10
DEPOT_SECTION
1
-1
EOF