Normalized Data/p10_14_normalized_splitx10_0.sol
859 -12 11 10 7 13 9 8 399 400 401 398 752 754 751 701 702 703 -18 17 16 14 19 15 609 610 426 425 -20 21 301 303 298 300 299 302 339 -22 23 490 492 488 489 491 487 791 794 795 -24 332 330 331 689 690 -26 25 187 183 185 188 186 184 86 88 87 89 130 129 -28 29 27 320 459 462 457 461 246 559 560 -33 30 31 32 351 355 354 353 356 352 666 664 665 507 510 509 505 508 -42 43 41 585 550 551 748 746 747 749 565 566 564 125 126 127 -44 46 47 49 45 48 670 669 673 671 672 667 668 705 -54 50 51 52 53 376 375 373 371 372 374 377 796 798 799 797 800 -58 59 62 60 61 254 255 256 257 753 750 755 283 282 280 281 -63 64 678 677 723 -65 522 519 521 518 742 741 744 743 179 182 180 181 -67 66 456 453 455 454 463 467 468 465 234 233 232 322 321 323 706 708 707 523 520 -74 75 632 631 583 582 580 581 525 524 526 527 441 440 -76 554 556 555 811 812 808 807 809 810 313 311 315 312 314 191 190 111 -78 80 77 568 567 646 647 648 422 424 419 423 421 420 239 645 643 -85 82 81 84 83 261 263 262 316 317 309 310 627 -101 100 711 712 710 709 342 344 343 658 660 659 661 824 823 825 307 -105 108 107 109 104 106 250 247 249 248 739 740 738 -114 115 113 110 112 477 475 479 478 476 474 480 442 439 438 277 279 -120 121 326 325 324 716 717 715 268 267 -128 557 558 131 132 -133 458 460 220 217 216 219 218 221 123 122 124 771 768 772 -138 139 140 175 178 176 177 174 435 436 437 -154 152 390 389 387 388 859 857 855 856 858 512 514 515 516 517 511 513 276 278 -189 608 604 606 605 607 532 530 531 79 496 494 -210 209 826 827 305 -229 228 230 231 227 713 612 611 620 624 623 621 -244 245 243 150 149 151 148 147 769 770 767 169 170 591 -252 253 251 208 206 205 207 204 761 757 756 760 759 762 758 396 397 -264 266 265 854 851 853 852 619 618 616 617 -275 214 215 213 573 574 578 576 577 575 327 328 -289 291 167 168 166 165 164 473 471 470 472 403 402 408 407 404 406 405 -293 290 292 34 36 35 37 38 260 258 259 655 654 657 652 653 656 704 -308 306 304 651 650 649 99 103 102 724 726 -318 319 409 412 411 414 596 613 615 614 714 -329 802 801 806 134 136 135 137 766 763 765 -341 340 392 393 391 394 395 69 68 71 73 70 72 788 790 -345 348 350 346 347 349 687 683 684 686 682 685 688 805 804 803 -366 55 56 380 381 379 382 378 841 843 844 842 -369 368 367 540 295 294 297 296 815 813 814 -370 418 416 417 415 287 284 285 288 286 840 839 838 837 663 662 692 -410 413 681 680 679 98 95 97 96 443 445 444 446 385 386 589 588 192 196 194 193 197 195 725 -427 428 429 242 240 241 358 357 359 835 836 -433 432 434 430 431 833 830 831 829 832 157 155 153 156 579 793 792 -451 452 848 850 846 847 849 845 464 469 466 360 365 363 361 362 364 173 172 171 594 593 595 -485 483 486 481 482 484 223 225 226 224 222 828 212 211 699 698 -504 506 274 269 273 271 272 270 700 537 536 -534 533 735 733 734 729 731 732 730 497 493 495 736 -535 538 597 601 599 600 598 603 602 116 118 119 117 691 693 694 -539 502 503 499 498 500 501 780 779 781 784 783 782 -563 561 562 676 675 674 -570 569 572 571 39 40 637 636 638 633 695 697 696 -586 584 587 57 547 552 548 549 553 528 529 635 634 -592 590 718 721 722 720 719 3 6 5 816 817 -625 630 628 629 626 449 447 448 450 542 541 546 544 545 543 384 383 622 727 728 -641 238 640 235 639 644 236 237 642 737 -745 4 2 1 198 199 201 200 202 203 834 -764 90 93 91 94 92 334 333 335 337 336 338 141 146 144 145 142 143 819 818 821 820 822 -773 777 778 776 774 775 162 161 159 160 158 163 785 786 789 787 0 





OBJ=
5660.539
BEST_KNOWN=
0.000